NAME: set2_case2_1_20
COMMENT: 1268
VEHICLE: 27
TIME: 600
DIMENSION: 20
CAPACITY: 10
DELIVERY_SECTION
0 0 0
1 1 2
2 1 2
3 1 1
4 2 2
5 2 2
6 2 2
7 3 2
8 3 2
9 3 2
10 3 1
11 4 2
12 4 2
13 4 2
14 4 2
15 5 2
16 5 2
17 5 2
18 5 2
19 5 1
20 6 2
21 6 2
22 6 2
23 6 2
24 6 2
25 7 2
26 7 2
27 7 2
28 7 2
29 7 2
30 7 1
31 8 2
32 8 2
33 8 2
34 8 2
35 8 2
36 8 2
37 9 2
38 9 2
39 9 2
40 9 2
41 9 2
42 9 2
43 9 1
44 10 2
45 10 2
46 10 2
47 10 2
48 10 2
49 10 2
50 10 2
51 11 2
52 11 2
53 11 2
54 11 2
55 11 2
56 11 2
57 11 2
58 11 1
59 12 2
60 12 2
61 12 2
62 12 2
63 12 2
64 12 2
65 12 2
66 12 2
67 13 2
68 13 2
69 13 2
70 13 2
71 13 2
72 13 2
73 13 2
74 13 2
75 13 1
76 14 2
77 14 2
78 14 2
79 14 2
80 14 2
81 14 2
82 14 2
83 14 2
84 14 2
85 15 2
86 15 2
87 15 2
88 15 2
89 15 2
90 15 2
91 15 2
92 15 2
93 15 2
94 15 1
95 16 2
96 16 2
97 16 2
98 16 2
99 16 2
100 16 2
101 16 2
102 16 2
103 16 2
104 16 2
105 17 2
106 17 2
107 17 2
108 17 2
109 17 2
110 17 2
111 17 2
112 17 2
113 17 2
114 17 2
115 17 1
116 18 2
117 18 2
118 18 2
119 18 2
120 18 2
121 18 2
122 18 2
123 18 2
124 18 2
125 18 2
126 18 2
127 19 2
128 19 2
129 19 2
130 19 2
131 19 2
132 19 2
133 19 2
134 19 2
135 19 2
136 19 2
137 19 2
138 19 1
PICKUP_SECTION
0 0 0
1 1 1
2 2 1
3 3 1
4 4 1
5 5 1
6 6 1
7 7 1
8 8 1
9 9 1
10 10 1
11 11 1
12 12 1
13 13 1
14 14 1
15 15 1
16 16 1
17 17 1
18 18 1
19 19 1
NODE_SECTION
DISTANCE_SECTION
10 11 12 13 14 15 16 17 18 19 20 21 22 23 24 25 26 27 28 
10 11 12 13 14 15 16 17 18 19 20 21 22 23 24 25 26 27 
10 11 12 13 14 15 16 17 18 19 20 21 22 23 24 25 26 
10 11 12 13 14 15 16 17 18 19 20 21 22 23 24 25 
10 11 12 13 14 15 16 17 18 19 20 21 22 23 24 
10 11 12 13 14 15 16 17 18 19 20 21 22 23 
10 11 12 13 14 15 16 17 18 19 20 21 22 
10 11 12 13 14 15 16 17 18 19 20 21 
10 11 12 13 14 15 16 17 18 19 20 
10 11 12 13 14 15 16 17 18 19 
10 11 12 13 14 15 16 17 18 
10 11 12 13 14 15 16 17 
10 11 12 13 14 15 16 
10 11 12 13 14 15 
10 11 12 13 14 
10 11 12 13 
10 11 12 
10 11 
10 
DEPOT_SECTION
0
EOF